Set parameter Username
Set parameter Threads to value 1
Academic license - for non-commercial use only - expires 2022-07-11
Set parameter TimeLimit to value 300
Gurobi Optimizer version 9.5.1 build v9.5.1rc2 (linux64)
Thread count: 2 physical cores, 4 logical processors, using up to 1 threads
Optimize a model with 880 rows, 820 columns and 3258 nonzeros
Model fingerprint: 0xb47ef3ff
Variable types: 20 continuous, 800 integer (800 binary)
Coefficient statistics:
  Matrix range     [1e+00, 5e+02]
  Objective range  [4e+01, 5e+02]
  Bounds range     [1e+00, 1e+00]
  RHS range        [1e+00, 1e+03]
Presolve removed 604 rows and 521 columns
Presolve time: 0.18s
Presolved: 276 rows, 299 columns, 1574 nonzeros
Variable types: 16 continuous, 283 integer (283 binary)

Root relaxation: objective 1.077000e+03, 416 iterations, 0.01 seconds (0.01 work units)

    Nodes    |    Current Node    |     Objective Bounds      |     Work
 Expl Unexpl |  Obj  Depth IntInf | Incumbent    BestBd   Gap | It/Node Time

     0     0 1077.00000    0   39          - 1077.00000      -     -    0s
H    0     0                    2795.0000000 1077.00000  61.5%     -    0s
     0     0 1212.82306    0   54 2795.00000 1212.82306  56.6%     -    0s
     0     0 1237.60650    0   53 2795.00000 1237.60650  55.7%     -    0s
     0     0 1238.86498    0   54 2795.00000 1238.86498  55.7%     -    0s
     0     0 1240.50109    0   56 2795.00000 1240.50109  55.6%     -    0s
     0     0 1396.96836    0   52 2795.00000 1396.96836  50.0%     -    0s
H    0     0                    2253.0000000 1396.96836  38.0%     -    0s
     0     0 1404.26665    0   54 2253.00000 1404.26665  37.7%     -    0s
     0     0 1406.58953    0   57 2253.00000 1406.58953  37.6%     -    0s
     0     0 1407.59774    0   57 2253.00000 1407.59774  37.5%     -    0s
     0     0 1408.05798    0   57 2253.00000 1408.05798  37.5%     -    0s
     0     0 1408.15082    0   57 2253.00000 1408.15082  37.5%     -    0s
     0     0 1422.44492    0   62 2253.00000 1422.44492  36.9%     -    0s
H    0     0                    2125.0000000 1422.44492  33.1%     -    0s
     0     0 1424.77201    0   61 2125.00000 1424.77201  33.0%     -    0s
     0     0 1425.02911    0   62 2125.00000 1425.02911  32.9%     -    0s
     0     0 1425.39058    0   62 2125.00000 1425.39058  32.9%     -    0s
     0     0 1425.39875    0   62 2125.00000 1425.39875  32.9%     -    0s
     0     0 1432.88438    0   66 2125.00000 1432.88438  32.6%     -    0s
     0     0 1435.18722    0   62 2125.00000 1435.18722  32.5%     -    0s
     0     0 1436.60175    0   62 2125.00000 1436.60175  32.4%     -    0s
     0     0 1436.91969    0   62 2125.00000 1436.91969  32.4%     -    0s
     0     0 1436.93098    0   61 2125.00000 1436.93098  32.4%     -    0s
     0     0 1438.57267    0   62 2125.00000 1438.57267  32.3%     -    0s
     0     0 1438.95540    0   65 2125.00000 1438.95540  32.3%     -    0s
     0     0 1439.06968    0   61 2125.00000 1439.06968  32.3%     -    0s
     0     0 1439.55193    0   62 2125.00000 1439.55193  32.3%     -    0s
     0     0 1441.51367    0   66 2125.00000 1441.51367  32.2%     -    0s
     0     0 1441.78260    0   66 2125.00000 1441.78260  32.2%     -    0s
     0     0 1441.82747    0   65 2125.00000 1441.82747  32.1%     -    0s
     0     0 1443.53604    0   56 2125.00000 1443.53604  32.1%     -    0s
     0     0 1445.38563    0   62 2125.00000 1445.38563  32.0%     -    0s
     0     0 1445.52820    0   63 2125.00000 1445.52820  32.0%     -    0s
     0     0 1445.65045    0   62 2125.00000 1445.65045  32.0%     -    0s
     0     0 1445.75067    0   63 2125.00000 1445.75067  32.0%     -    0s
     0     0 1445.76010    0   63 2125.00000 1445.76010  32.0%     -    0s
     0     0 1445.81873    0   63 2125.00000 1445.81873  32.0%     -    0s
     0     0 1445.81965    0   63 2125.00000 1445.81965  32.0%     -    0s
     0     0 1446.29676    0   66 2125.00000 1446.29676  31.9%     -    0s
     0     0 1446.29676    0   66 2125.00000 1446.29676  31.9%     -    0s
H    0     0                    2113.0000000 1462.85034  30.8%     -    0s
H    0     0                    2070.0000000 1462.85034  29.3%     -    0s
     0     2 1462.85034    0   65 2070.00000 1462.85034  29.3%     -    0s
H   81    46                    2020.0000000 1504.40528  25.5%  19.4    0s
*  601   180              24    2014.0000000 1697.42009  15.7%  13.8    0s
* 1261   144              12    2012.0000000 1890.38415  6.04%  14.2    1s
* 1412    95              19    1997.0000000 1926.65209  3.52%  13.9    1s
* 1413    93              19    1995.0000000 1926.65209  3.43%  13.9    1s

Cutting planes:
  Gomory: 3
  Cover: 85
  Implied bound: 9
  Clique: 26
  MIR: 69
  GUB cover: 13
  RLT: 2
  Relax-and-lift: 13

Explored 1684 nodes (25653 simplex iterations) in 1.40 seconds (0.74 work units)
Thread count was 1 (of 4 available processors)

Solution count 10: 1995 1997 2012 ... 2795

Optimal solution found (tolerance 1.00e-04)
Best objective 1.995000000000e+03, best bound 1.995000000000e+03, gap 0.0000%
